c CNF file corresponding to a (partial) station packing problem.
p cnf 1025 243
1 2 3 4 5 6 7 8 9 10 11 12 13 14 0
-1 -2 0
-1 -3 0
-1 -4 0
-1 -5 0
-1 -6 0
-1 -7 0
-1 -8 0
-1 -9 0
-1 -10 0
-1 -11 0
-1 -12 0
-1 -13 0
-1 -14 0
-2 -3 0
-2 -4 0
-2 -5 0
-2 -6 0
-2 -7 0
-2 -8 0
-2 -9 0
-2 -10 0
-2 -11 0
-2 -12 0
-2 -13 0
-2 -14 0
-3 -4 0
-3 -5 0
-3 -6 0
-3 -7 0
-3 -8 0
-3 -9 0
-3 -10 0
-3 -11 0
-3 -12 0
-3 -13 0
-3 -14 0
-4 -5 0
-4 -6 0
-4 -7 0
-4 -8 0
-4 -9 0
-4 -10 0
-4 -11 0
-4 -12 0
-4 -13 0
-4 -14 0
-5 -6 0
-5 -7 0
-5 -8 0
-5 -9 0
-5 -10 0
-5 -11 0
-5 -12 0
-5 -13 0
-5 -14 0
-6 -7 0
-6 -8 0
-6 -9 0
-6 -10 0
-6 -11 0
-6 -12 0
-6 -13 0
-6 -14 0
-7 -8 0
-7 -9 0
-7 -10 0
-7 -11 0
-7 -12 0
-7 -13 0
-7 -14 0
-8 -9 0
-8 -10 0
-8 -11 0
-8 -12 0
-8 -13 0
-8 -14 0
-9 -10 0
-9 -11 0
-9 -12 0
-9 -13 0
-9 -14 0
-10 -11 0
-10 -12 0
-10 -13 0
-10 -14 0
-11 -12 0
-11 -13 0
-11 -14 0
-12 -13 0
-12 -14 0
-13 -14 0
-1017 -6 0
-1020 -9 0
-1024 -13 0
-3 -1013 0
-1 -1011 0
-1015 -4 0
-1012 -2 0
-14 -1025 0
-10 -1021 0
-1016 -5 0
-7 -1018 0
-11 -1022 0
-1023 -12 0
-8 -1019 0
1009 1010 1011 1012 1013 1014 1015 1016 1017 1018 1019 1020 1021 1022 1023 1024 1025 0
-1009 -1010 0
-1009 -1011 0
-1009 -1012 0
-1009 -1013 0
-1009 -1014 0
-1009 -1015 0
-1009 -1016 0
-1009 -1017 0
-1009 -1018 0
-1009 -1019 0
-1009 -1020 0
-1009 -1021 0
-1009 -1022 0
-1009 -1023 0
-1009 -1024 0
-1009 -1025 0
-1010 -1011 0
-1010 -1012 0
-1010 -1013 0
-1010 -1014 0
-1010 -1015 0
-1010 -1016 0
-1010 -1017 0
-1010 -1018 0
-1010 -1019 0
-1010 -1020 0
-1010 -1021 0
-1010 -1022 0
-1010 -1023 0
-1010 -1024 0
-1010 -1025 0
-1011 -1012 0
-1011 -1013 0
-1011 -1014 0
-1011 -1015 0
-1011 -1016 0
-1011 -1017 0
-1011 -1018 0
-1011 -1019 0
-1011 -1020 0
-1011 -1021 0
-1011 -1022 0
-1011 -1023 0
-1011 -1024 0
-1011 -1025 0
-1012 -1013 0
-1012 -1014 0
-1012 -1015 0
-1012 -1016 0
-1012 -1017 0
-1012 -1018 0
-1012 -1019 0
-1012 -1020 0
-1012 -1021 0
-1012 -1022 0
-1012 -1023 0
-1012 -1024 0
-1012 -1025 0
-1013 -1014 0
-1013 -1015 0
-1013 -1016 0
-1013 -1017 0
-1013 -1018 0
-1013 -1019 0
-1013 -1020 0
-1013 -1021 0
-1013 -1022 0
-1013 -1023 0
-1013 -1024 0
-1013 -1025 0
-1014 -1015 0
-1014 -1016 0
-1014 -1017 0
-1014 -1018 0
-1014 -1019 0
-1014 -1020 0
-1014 -1021 0
-1014 -1022 0
-1014 -1023 0
-1014 -1024 0
-1014 -1025 0
-1015 -1016 0
-1015 -1017 0
-1015 -1018 0
-1015 -1019 0
-1015 -1020 0
-1015 -1021 0
-1015 -1022 0
-1015 -1023 0
-1015 -1024 0
-1015 -1025 0
-1016 -1017 0
-1016 -1018 0
-1016 -1019 0
-1016 -1020 0
-1016 -1021 0
-1016 -1022 0
-1016 -1023 0
-1016 -1024 0
-1016 -1025 0
-1017 -1018 0
-1017 -1019 0
-1017 -1020 0
-1017 -1021 0
-1017 -1022 0
-1017 -1023 0
-1017 -1024 0
-1017 -1025 0
-1018 -1019 0
-1018 -1020 0
-1018 -1021 0
-1018 -1022 0
-1018 -1023 0
-1018 -1024 0
-1018 -1025 0
-1019 -1020 0
-1019 -1021 0
-1019 -1022 0
-1019 -1023 0
-1019 -1024 0
-1019 -1025 0
-1020 -1021 0
-1020 -1022 0
-1020 -1023 0
-1020 -1024 0
-1020 -1025 0
-1021 -1022 0
-1021 -1023 0
-1021 -1024 0
-1021 -1025 0
-1022 -1023 0
-1022 -1024 0
-1022 -1025 0
-1023 -1024 0
-1023 -1025 0
-1024 -1025 0
